language ESSENCE' 1.0
letting lastdx=96
letting cage be [
[21,7,7,8,7,9,7,9,6,9,5],
[18,12,14,12,13,12,12,0,0, 0,0],
[11,2,11,3,11,0,0, 0,0, 0,0],
[32,14,12,15,12,15,11,0,0, 0,0],
[26,14,3,14,2,14,1,0,0, 0,0],
[6,7,15,0,0, 0,0, 0,0, 0,0],
[24,9,8,9,9,9,10,0,0, 0,0],
[4,13,8,0,0, 0,0, 0,0, 0,0],
[14,3,14,0,0, 0,0, 0,0, 0,0],
[5,14,15,0,0, 0,0, 0,0, 0,0],
[3,9,15,0,0, 0,0, 0,0, 0,0],
[15,1,3,0,0, 0,0, 0,0, 0,0],
[11,9,1,0,0, 0,0, 0,0, 0,0],
[8,4,12,0,0, 0,0, 0,0, 0,0],
[13,7,11,7,12,8,12,0,0, 0,0],
[20,7,1,8,1,0,0, 0,0, 0,0],
[26,4,6,3,6,3,5,0,0, 0,0],
[6,1,16,0,0, 0,0, 0,0, 0,0],
[59,5,11,5,12,6,12,6,11,6,10],
[30,15,1,15,2,16,2,16,1,0,0],
[13,4,1,5,1,6,1,0,0, 0,0],
[25,12,8,12,9,12,10,0,0, 0,0],
[31,1,8,2,8,2,9,1,9,0,0],
[35,3,13,4,13,4,14,5,14,0,0],
[62,11,10,11,11,10,11,10,12,10,13],
[16,10,7,10,8,0,0, 0,0, 0,0],
[37,13,10,13,9,14,9,14,8,0,0],
[3,3,12,0,0, 0,0, 0,0, 0,0],
[12,12,1,0,0, 0,0, 0,0, 0,0],
[8,15,15,0,0, 0,0, 0,0, 0,0],
[7,5,10,0,0, 0,0, 0,0, 0,0],
[31,6,6,5,6,5,5,0,0, 0,0],
[41,9,13,9,14,10,14,10,15,0,0],
[33,13,2,13,1,12,2,11,2,0,0],
[36,8,14,8,13,7,13,6,13,5,13],
[11,5,2,0,0, 0,0, 0,0, 0,0],
[4,4,15,0,0, 0,0, 0,0, 0,0],
[18,12,7,13,7,0,0, 0,0, 0,0],
[14,6,3,0,0, 0,0, 0,0, 0,0],
[3,1,13,0,0, 0,0, 0,0, 0,0],
[42,7,10,7,9,8,9,8,8,7,8],
[17,8,16,8,15,0,0, 0,0, 0,0],
[37,11,6,11,7,11,8,0,0, 0,0],
[19,6,9,6,8,6,7,0,0, 0,0],
[46,3,8,3,7,4,7,4,8,4,9],
[33,1,10,1,11,1,12,0,0, 0,0],
[52,5,15,6,15,6,14,7,14,0,0],
[8,10,3,0,0, 0,0, 0,0, 0,0],
[33,8,2,8,3,8,4,0,0, 0,0],
[17,11,13,11,12,0,0, 0,0, 0,0],
[12,11,15,11,14,0,0, 0,0, 0,0],
[47,7,5,7,4,7,3,7,2,6,2],
[21,1,4,2,4,0,0, 0,0, 0,0],
[1,5,7,0,0, 0,0, 0,0, 0,0],
[18,10,5,10,6,0,0, 0,0, 0,0],
[15,3,16,0,0, 0,0, 0,0, 0,0],
[5,15,16,14,16,0,0, 0,0, 0,0],
[30,14,10,14,11,13,11,12,11,13,12],
[7,1,6,0,0, 0,0, 0,0, 0,0],
[16,13,16,0,0, 0,0, 0,0, 0,0],
[28,13,6,12,6,0,0, 0,0, 0,0],
[15,8,5,0,0, 0,0, 0,0, 0,0],
[12,15,10,0,0, 0,0, 0,0, 0,0],
[38,16,3,16,4,16,5,0,0, 0,0],
[27,5,3,5,4,4,4,4,5,0,0],
[48,4,10,4,11,3,10,2,10,3,9],
[7,9,4,10,4,0,0, 0,0, 0,0],
[30,13,13,13,14,14,14,0,0, 0,0],
[24,4,2,4,3,3,3,3,4,0,0],
[12,3,1,3,2,0,0, 0,0, 0,0],
[15,8,6,7,6,0,0, 0,0, 0,0],
[34,2,5,1,5,2,6,0,0, 0,0],
[13,15,9,0,0, 0,0, 0,0, 0,0],
[24,16,11,16,10,16,9,16,8,0,0],
[28,2,15,2,16,3,15,0,0, 0,0],
[41,9,2,9,3,10,2,10,1,11,1],
[18,1,7,2,7,0,0, 0,0, 0,0],
[13,14,13,0,0, 0,0, 0,0, 0,0],
[2,1,15,0,0, 0,0, 0,0, 0,0],
[36,15,5,15,4,15,3,14,4,0,0],
[15,16,13,16,12,0,0, 0,0, 0,0],
[16,14,7,0,0, 0,0, 0,0, 0,0],
[9,15,6,14,6,14,5,0,0, 0,0],
[33,11,5,11,4,11,3,12,4,0,0],
[16,2,2,2,3,0,0, 0,0, 0,0],
[28,1,1,1,2,2,1,0,0, 0,0],
[25,1,14,2,14,2,13,2,12,0,0],
[9,4,16,0,0, 0,0, 0,0, 0,0],
[26,5,8,5,9,0,0, 0,0, 0,0],
[22,5,16,6,16,7,16,0,0, 0,0],
[15,6,4,6,5,0,0, 0,0, 0,0],
[34,9,16,10,16,11,16,0,0, 0,0],
[18,10,9,10,10,11,9,0,0, 0,0],
[24,12,15,12,16,13,15,0,0, 0,0],
[17,15,7,15,8,0,0, 0,0, 0,0],
[37,15,13,15,14,16,14,16,15,16,16],
[23,16,6,16,7,0,0, 0,0, 0,0]
]
